182
Route #1: 1 35 75 134 
Route #2: 2 31 99 
Route #3: 3 54 97 
Route #4: 4 53 
Route #5: 5 46 76 
Route #6: 6 21 69 98 136 
Route #7: 7 28 65 140 
Route #8: 8 33 107 
Route #9: 9 14 38 71 95 
Route #10: 10 87 
Route #11: 11 66 
Route #12: 12 47 114 
Route #13: 13 80 
Route #14: 15 96 
Route #15: 16 56 125 
Route #16: 17 43 88 
Route #17: 18 86 110 
Route #18: 19 85 
Route #19: 20 60 119 
Route #20: 22 116 
Route #21: 23 61 117 
Route #22: 24 73 124 
Route #23: 25 42 72 137 
Route #24: 26 100 
Route #25: 27 41 55 127 
Route #26: 29 113 
Route #27: 30 59 92 150 
Route #28: 32 67 167 
Route #29: 34 90 178 
Route #30: 36 78 141 
Route #31: 37 57 145 
Route #32: 39 89 
Route #33: 40 74 148 
Route #34: 44 93 121 
Route #35: 45 128 
Route #36: 48 103 160 189 
Route #37: 49 139 161 
Route #38: 50 83 132 170 
Route #39: 51 126 191 
Route #40: 52 153 
Route #41: 58 133 185 
Route #42: 62 159 
Route #43: 63 94 158 
Route #44: 64 123 209 
Route #45: 68 138 211 
Route #46: 70 129 
Route #47: 77 130 168 
Route #48: 79 154 
Route #49: 81 135 227 
Route #50: 82 147 
Route #51: 84 179 
Route #52: 91 175 
Route #53: 101 156 190 
Route #54: 102 131 163 173 220 
Route #55: 104 169 218 255 
Route #56: 105 122 152 217 251 
Route #57: 106 165 239 
Route #58: 108 149 232 
Route #59: 109 151 
Route #60: 111 180 224 
Route #61: 112 172 215 261 
Route #62: 115 143 237 
Route #63: 118 214 
Route #64: 120 197 250 
Route #65: 142 155 228 271 
Route #66: 144 226 248 304 
Route #67: 146 229 241 285 
Route #68: 157 216 312 
Route #69: 162 231 321 
Route #70: 164 263 
Route #71: 166 254 
Route #72: 171 247 268 293 322 
Route #73: 174 236 319 
Route #74: 176 286 
Route #75: 177 221 269 288 
Route #76: 181 267 
Route #77: 182 222 276 328 
Route #78: 183 272 
Route #79: 184 260 289 
Route #80: 186 223 299 
Route #81: 187 234 294 
Route #82: 188 212 240 262 316 
Route #83: 192 270 305 352 
Route #84: 193 275 
Route #85: 194 244 280 302 
Route #86: 195 256 317 
Route #87: 196 238 313 
Route #88: 198 266 
Route #89: 199 297 
Route #90: 200 230 300 
Route #91: 201 243 318 
Route #92: 202 278 337 
Route #93: 203 265 326 
Route #94: 204 283 
Route #95: 205 279 327 
Route #96: 206 292 
Route #97: 207 225 303 
Route #98: 208 284 
Route #99: 210 233 282 
Route #100: 213 290 
Route #101: 219 252 291 
Route #102: 235 330 
Route #103: 242 295 332 
Route #104: 245 309 369 
Route #105: 246 310 
Route #106: 249 287 314 
Route #107: 253 281 387 
Route #108: 257 273 345 
Route #109: 258 351 
Route #110: 259 311 391 
Route #111: 264 306 416 
Route #112: 274 298 380 
Route #113: 277 376 
Route #114: 296 366 403 
Route #115: 301 334 
Route #116: 307 406 
Route #117: 308 361 411 
Route #118: 315 383 427 
Route #119: 320 438 
Route #120: 323 445 
Route #121: 324 412 
Route #122: 325 423 
Route #123: 329 433 
Route #124: 331 381 470 
Route #125: 333 371 436 
Route #126: 335 393 488 
Route #127: 336 398 441 
Route #128: 338 386 437 
Route #129: 339 424 500 
Route #130: 340 404 499 
Route #131: 341 420 
Route #132: 342 395 485 
Route #133: 343 382 455 
Route #134: 344 431 478 
Route #135: 346 450 
Route #136: 347 425 495 
Route #137: 348 373 432 
Route #138: 349 415 461 
Route #139: 350 355 422 479 
Route #140: 353 408 494 
Route #141: 354 417 484 
Route #142: 356 426 475 
Route #143: 357 456 
Route #144: 358 480 
Route #145: 359 409 486 
Route #146: 360 414 447 
Route #147: 362 444 
Route #148: 363 466 
Route #149: 364 388 430 
Route #150: 365 379 448 
Route #151: 367 390 463 
Route #152: 368 439 481 
Route #153: 370 405 442 497 
Route #154: 372 460 
Route #155: 374 446 
Route #156: 375 458 
Route #157: 377 384 473 
Route #158: 378 453 492 
Route #159: 385 477 
Route #160: 389 449 
Route #161: 392 464 
Route #162: 394 454 
Route #163: 396 487 
Route #164: 397 491 
Route #165: 399 452 
Route #166: 400 419 459 
Route #167: 401 462 
Route #168: 402 472 
Route #169: 407 489 
Route #170: 410 483 
Route #171: 413 476 
Route #172: 418 471 
Route #173: 421 465 
Route #174: 428 474 
Route #175: 429 493 
Route #176: 434 
Route #177: 435 451 467 
Route #178: 440 457 490 
Route #179: 443 469 
Route #180: 468 498 
Route #181: 482 
Route #182: 496 
Cost 328262.0
